(set-logic QF_S)
(declare-fun var0 () String)
(declare-fun var1 () Int)
(declare-fun var2 () Bool)
(declare-fun var3 () String)
(declare-fun var4 () Int)
(declare-fun var5 () Bool)
(declare-fun var6 () String)
(declare-fun var7 () Int)
(declare-fun var8 () Bool)
(assert (<= (str.len var0) (str.len var6)))
(assert (<= (str.len var6) (str.len "(7KVt"")_zi")))
(assert (str.contains (str.replace (str.replace var3 var3 "zqi:lz6TBZ") (str.replace var0 var0 var3) (str.at var3 var7)) (str.replace (str.substr var0 var7 var7) (str.at var0 var1) (str.at var6 var4))))
(assert (str.in.re (str.replace var3 var0 var3) (re.+ (re.+ re.allchar))))
(check-sat)